# Solution for model GasLib-40
# Objective value = 1.3034424817278753e+01
loadshed[innode_1] 0
loadshed[innode_2] 0
loadshed[innode_3] 0
loadshed[innode_4] 0
loadshed[innode_5] 0
loadshed[innode_6] 0
loadshed[innode_7] 0
loadshed[innode_8] 0
loadshed[source_1] -2.2132583412319229e-01
loadshed[source_2] 1.0796944560734290e-01
loadshed[source_3] 1.9580563840316889e-01
loadshed[sink_1] 0
loadshed[sink_2] 0
loadshed[sink_3] 0
loadshed[sink_4] 0
loadshed[sink_5] 0
loadshed[sink_6] 0
loadshed[sink_7] 0
loadshed[sink_8] 0
loadshed[sink_9] 0
loadshed[sink_10] 0
loadshed[sink_11] 0
loadshed[sink_12] 7.9700941557882810e-01
loadshed[sink_13] 0
loadshed[sink_14] 0
loadshed[sink_15] 0
loadshed[sink_16] 0
loadshed[sink_17] 0
loadshed[sink_18] 0
loadshed[sink_19] 0
loadshed[sink_20] 0
loadshed[sink_21] 0
loadshed[sink_22] 0
loadshed[sink_23] 0
loadshed[sink_24] 0
loadshed[sink_25] 0
loadshed[sink_26] 0
loadshed[sink_27] 0
loadshed[sink_28] 0
loadshed[sink_29] 0
flow[source_1,sink_3] 1.9307974037371162e+02
flow[innode_1,sink_16] 1.6354166666666970e+01
flow[innode_6,sink_13] -1.2656143345499117e+01
flow[sink_13,sink_14] -2.9010310012165785e+01
flow[sink_14,sink_10] -4.5364476678832432e+01
flow[sink_25,sink_26] 1.7843701579853018e+02
flow[sink_26,sink_9] 1.5050724184938878e+02
flow[sink_9,sink_18] 1.3415307518272212e+02
flow[sink_26,sink_4] 1.1575607282474721e+01
flow[sink_4,sink_20] -1.6403308336337830e+01
flow[sink_18,sink_6] 1.1779890851605546e+02
flow[sink_25,innode_8] -1.6037140704037529e+02
flow[sink_6,sink_7] 6.8736408516054780e+01
flow[sink_6,sink_22] 3.2708333333333641e+01
flow[sink_7,sink_24] 3.6028075182721253e+01
flow[sink_22,sink_1] 1.6354166666666970e+01
flow[sink_24,sink_21] 1.9673908516054585e+01
flow[sink_21,sink_12] 3.3197418493879169e+00
flow[sink_7,sink_5] 1.6354166666667368e+01
flow[sink_5,sink_17] 0
flow[sink_17,sink_4] -1.1624748952145865e+01
flow[sink_17,sink_8] -4.7294177145207819e+00
flow[sink_3,sink_23] 16.3541666666697
flow[sink_8,sink_20] -2.1083584381187450e+01
flow[sink_25,sink_20] 5.3841059384191908e+01
flow[sink_25,sink_15] -7.5604691463515181e+01
flow[sink_15,sink_29] -9.1958858130181852e+01
flow[sink_29,sink_28] 1.6354166666667879e+01
flow[sink_29,sink_2] 1.6354166666684250e+01
flow[sink_2,sink_15] 0
flow[sink_29,innode_7] -1.4102135813020027e+02
flow[innode_4,sink_19] 4.9612569379282036e+01
flow[sink_19,innode_3] 4.6079966043218519e+01
flow[innode_4,innode_5] 7.7522740632883711e+01
flow[sink_27,innode_5] -7.7522740632883711e+01
flow[sink_27,sink_19] 6.1168573966216968e+01
flow[sink_10,sink_11] 3.2708333333333641e+01
flow[sink_10,innode_2] -4.8347010635614254e+01
flow[sink_10,innode_3] -4.6079966043218519e+01
flow[innode_6,sink_25] 1.2656143345499117e+01
flow[sink_11,innode_1] 1.6354166666666970e+01
flow[sink_19,innode_2] 4.8347010635614254e+01
flow[source_3,innode_4] 1.2713531001216569e+02
flow[source_2,innode_7] 1.4102135813020027e+02
flow[sink_3,innode_8] 1.6037140704037529e+02
pressure[innode_1] 7.6296277901508574e+01
pressure[innode_2] 7.9003318400898010e+01
pressure[innode_3] 78.9012795340854
pressure[innode_4] 81.01325
pressure[innode_5] 8.0959925771205931e+01
pressure[innode_6] 7.4180615536427311e+01
pressure[innode_7] 81.01325
pressure[innode_8] 8.0367858187064982e+01
pressure[source_1] 81.01325
pressure[source_2] 81.01325
pressure[source_3] 81.01325
pressure[sink_1] 4.2504437124551281e+01
pressure[sink_2] 7.6827211622089251e+01
pressure[sink_3] 8.0367858187064982e+01
pressure[sink_4] 6.0141648635082078e+01
pressure[sink_5] 3.6860357661918584e+01
pressure[sink_6] 4.4605514734938652e+01
pressure[sink_7] 43.6619276888133
pressure[sink_8] 5.9875842278649813e+01
pressure[sink_9] 52.6051544308008
pressure[sink_10] 7.6447979209112120e+01
pressure[sink_11] 7.6296277901508574e+01
pressure[sink_12] 1.01325
pressure[sink_13] 7.4250386739653010e+01
pressure[sink_14] 7.4302303160551787e+01
pressure[sink_15] 7.4547371960887517e+01
pressure[sink_16] 75.2746280666909
pressure[sink_17] 5.9697389061555853e+01
pressure[sink_18] 4.7751096325760216e+01
pressure[sink_19] 7.9003318400898010e+01
pressure[sink_20] 61.3450716058569
pressure[sink_21] 2.1945958401913606e+00
pressure[sink_22] 4.3568206266906287e+01
pressure[sink_23] 80.2031401754052
pressure[sink_24] 2.4124660977656287e+00
pressure[sink_25] 7.4180615536427311e+01
pressure[sink_26] 6.1613401303984979e+01
pressure[sink_27] 8.0316630270575232e+01
pressure[sink_28] 7.6946198846935729e+01
pressure[sink_29] 77.2414811205529
interdiction[source_1,sink_3] 0
interdiction[innode_1,sink_16] 0
interdiction[innode_6,sink_13] 0
interdiction[sink_13,sink_14] 0
interdiction[sink_14,sink_10] 0
interdiction[sink_25,sink_26] 0
interdiction[sink_26,sink_9] 0
interdiction[sink_9,sink_18] 0
interdiction[sink_26,sink_4] 0
interdiction[sink_4,sink_20] 0
interdiction[sink_18,sink_6] 0
interdiction[sink_25,innode_8] 0
interdiction[sink_6,sink_7] 0
interdiction[sink_6,sink_22] 0
interdiction[sink_7,sink_24] 0
interdiction[sink_22,sink_1] 0
interdiction[sink_24,sink_21] 0
interdiction[sink_21,sink_12] 0
interdiction[sink_7,sink_5] 0
interdiction[sink_5,sink_17] 1
interdiction[sink_17,sink_4] 0
interdiction[sink_17,sink_8] 0
interdiction[sink_3,sink_23] 0
interdiction[sink_8,sink_20] 0
interdiction[sink_25,sink_20] 0
interdiction[sink_25,sink_15] 0
interdiction[sink_15,sink_29] 0
interdiction[sink_29,sink_28] 0
interdiction[sink_29,sink_2] 0
interdiction[sink_2,sink_15] 1
interdiction[sink_29,innode_7] 0
interdiction[innode_4,sink_19] 0
interdiction[sink_19,innode_3] 0
interdiction[innode_4,innode_5] 0
interdiction[sink_27,innode_5] 0
interdiction[sink_27,sink_19] 0
interdiction[sink_10,sink_11] 0
interdiction[sink_10,innode_2] 0
interdiction[sink_10,innode_3] 0
interdiction[innode_6,sink_25] 0
interdiction[sink_11,innode_1] 0
interdiction[sink_19,innode_2] 0
interdiction[source_3,innode_4] 0
interdiction[source_2,innode_7] 0
interdiction[sink_3,innode_8] 0
WCcheckFlow[source_1,sink_3] 39
WCcheckFlow[innode_1,sink_16] 1
WCcheckFlow[innode_6,sink_13] 13
WCcheckFlow[sink_13,sink_14] 12
WCcheckFlow[sink_14,sink_10] 11
WCcheckFlow[sink_25,sink_26] 15
WCcheckFlow[sink_26,sink_9] 10
WCcheckFlow[sink_9,sink_18] 9
WCcheckFlow[sink_26,sink_4] 4
WCcheckFlow[sink_4,sink_20] 1
WCcheckFlow[sink_18,sink_6] 8
WCcheckFlow[sink_25,innode_8] -36
WCcheckFlow[sink_6,sink_7] 5
WCcheckFlow[sink_6,sink_22] 2
WCcheckFlow[sink_7,sink_24] 3
WCcheckFlow[sink_22,sink_1] 1
WCcheckFlow[sink_24,sink_21] 2
WCcheckFlow[sink_21,sink_12] 1
WCcheckFlow[sink_7,sink_5] 1
WCcheckFlow[sink_5,sink_17] 0
WCcheckFlow[sink_17,sink_4] -2
WCcheckFlow[sink_17,sink_8] 1
WCcheckFlow[sink_3,sink_23] 1
WCcheckFlow[sink_8,sink_20] 0
WCcheckFlow[sink_25,sink_20] 0
WCcheckFlow[sink_25,sink_15] 6
WCcheckFlow[sink_15,sink_29] 5
WCcheckFlow[sink_29,sink_28] 1
WCcheckFlow[sink_29,sink_2] 1
WCcheckFlow[sink_2,sink_15] 0
WCcheckFlow[sink_29,innode_7] 2
WCcheckFlow[innode_4,sink_19] -4
WCcheckFlow[sink_19,innode_3] -5
WCcheckFlow[innode_4,innode_5] 2
WCcheckFlow[sink_27,innode_5] -1
WCcheckFlow[sink_27,sink_19] 0
WCcheckFlow[sink_10,sink_11] 3
WCcheckFlow[sink_10,innode_2] 1
WCcheckFlow[sink_10,innode_3] 6
WCcheckFlow[innode_6,sink_25] -14
WCcheckFlow[sink_11,innode_1] 2
WCcheckFlow[sink_19,innode_2] 0
WCcheckFlow[source_3,innode_4] -1
WCcheckFlow[source_2,innode_7] -1
WCcheckFlow[sink_3,innode_8] 37
